Solver command line: ['/opt/sw/arch/easybuild/2018b/software/CPLEX/12.9-GCCcore-8.2.0/cplex/bin/x86-64_linux/cplex']


Welcome to IBM(R) ILOG(R) CPLEX(R) Interactive Optimizer 12.9.0.0
  with Simplex, Mixed Integer & Barrier Optimizers
5725-A06 5725-A29 5724-Y48 5724-Y49 5724-Y54 5724-Y55 5655-Y21
Copyright IBM Corp. 1988, 2019.  All Rights Reserved.

Type 'help' for a list of available commands.
Type 'help' followed by a command name for more
information on commands.

CPLEX> Logfile 'cplex.log' closed.
Logfile 'obj_3_5.log' open.
CPLEX> New value for default parallel thread count: 16
CPLEX> Problem '/localscratch/arosati/70372665/tmpf6q8q0i2.pyomo.lp' read.
Read time = 0.01 sec. (0.73 ticks)
CPLEX> MIP start file '/localscratch/arosati/70372665/tmp3waysx9z.cplex.mst' read.
CPLEX> Problem name         : /localscratch/arosati/70372665/tmpf6q8q0i2.pyomo.lp
Objective sense      : Minimize
Variables            :    6769  [Nneg: 1,  General Integer: 6768]
Objective nonzeros   :     421
Linear constraints   :    1546  [Less: 1129,  Equal: 417]
  Nonzeros           :   38705
  RHS nonzeros       :     702

Variables            : Min LB: 0.000000         Max UB: 1.000000       
Objective nonzeros   : Min   : 1.000000         Max   : 28.00000       
Linear constraints   :
  Nonzeros           : Min   : 1.000000         Max   : 225.0000       
  RHS nonzeros       : Min   : 1.000000         Max   : 12.00000       
CPLEX> CPXPARAM_Threads                                 16
1 of 1 MIP starts provided solutions.
MIP start 'm1' defined initial solution with objective 73.0000.
Tried aggregator 1 time.
MIP Presolve eliminated 563 rows and 433 columns.
MIP Presolve modified 5940 coefficients.
Reduced MIP has 979 rows, 6336 columns, and 22806 nonzeros.
Reduced MIP has 6336 binaries, 0 generals, 0 SOSs, and 0 indicators.
Presolve time = 0.03 sec. (29.12 ticks)
Tried aggregator 1 time.
Reduced MIP has 979 rows, 6336 columns, and 22806 nonzeros.
Reduced MIP has 6336 binaries, 0 generals, 0 SOSs, and 0 indicators.
Presolve time = 0.04 sec. (39.83 ticks)
Probing time = 0.01 sec. (4.15 ticks)
Clique table members: 11780.
MIP emphasis: balance optimality and feasibility.
MIP search method: dynamic search.
Parallel mode: deterministic, using up to 16 threads.
Root relaxation solution time = 0.07 sec. (35.38 ticks)

        Nodes                                         Cuts/
   Node  Left     Objective  IInf  Best Integer    Best Bound    ItCnt     Gap

*     0+    0                           73.0000      -28.0000           138.36%
      0     0        0.0000    81       73.0000        0.0000     1577  100.00%
*     0+    0                           59.0000        0.0000           100.00%
*     0+    0                            0.0000        0.0000             0.00%
      0     0        cutoff              0.0000        0.0000     1577    0.00%
Elapsed time = 0.38 sec. (205.30 ticks, tree = 0.01 MB, solutions = 3)

Root node processing (before b&c):
  Real time             =    0.38 sec. (205.70 ticks)
Parallel b&c, 16 threads:
  Real time             =    0.00 sec. (0.00 ticks)
  Sync time (average)   =    0.00 sec.
  Wait time (average)   =    0.00 sec.
                          ------------
Total (root+branch&cut) =    0.38 sec. (205.70 ticks)

Solution pool: 3 solutions saved.

MIP - Integer optimal solution:  Objective =  0.0000000000e+00
Solution time =    0.39 sec.  Iterations = 1577  Nodes = 0
Deterministic time = 205.72 ticks  (534.04 ticks/sec)

CPLEX> Incumbent solution written to file '/localscratch/arosati/70372665/tmp55jfoll3.cplex.sol'.
CPLEX> 
